
******************************************************************************
This program contains Ipopt, a library for large-scale nonlinear optimization.
 Ipopt is released as open source code under the Eclipse Public License (EPL).
         For more information visit http://projects.coin-or.org/Ipopt
******************************************************************************

This is Ipopt version 3.12.6, running with linear solver ma57.

Number of nonzeros in equality constraint Jacobian...:     1003
Number of nonzeros in inequality constraint Jacobian.:        0
Number of nonzeros in Lagrangian Hessian.............:      403

Total number of variables............................:      202
                     variables with only lower bounds:        0
                variables with lower and upper bounds:      202
                     variables with only upper bounds:        0
Total number of equality constraints.................:      202
Total number of inequality constraints...............:        0
        inequality constraints with only lower bounds:        0
   inequality constraints with lower and upper bounds:        0
        inequality constraints with only upper bounds:        0

iter    objective    inf_pr   inf_du lg(mu)  ||d||  lg(rg) alpha_du alpha_pr  ls
   0 -9.9000001e-01 7.05e+00 1.00e+00  -1.0 0.00e+00    -  0.00e+00 0.00e+00   0
   1 -9.9990001e-01 7.02e+00 1.85e+01  -1.0 8.20e+00    -  1.02e-01 4.92e-03h  1
   2 -9.9999901e-01 6.88e+00 4.74e+02  -1.0 4.16e+00    -  2.52e-01 1.94e-02h  1
   3 -1.0000000e+00 6.37e+00 6.72e+04  -1.0 2.06e+00    -  7.70e-01 7.53e-02h  1
   4 -1.0000000e+00 1.96e+00 1.64e+07  -1.0 9.30e-01    -  1.00e+00 8.22e-01h  1
   5 -1.0000000e+00 3.37e-01 2.55e+06  -1.0 3.27e-01    -  2.05e-02 1.00e+00h  1
   6 -1.0000000e+00 2.12e-02 1.22e+05  -1.0 8.40e-02    -  8.28e-01 1.00e+00h  1
   7 -1.0000000e+00 1.10e-04 1.74e+02  -1.0 6.05e-03    -  1.00e+00 1.00e+00h  1
   8 -1.0000000e+00 3.03e-09 4.40e+02  -1.7 3.18e-05    -  1.00e+00 1.00e+00h  1

Number of Iterations....: 8

                                   (scaled)                 (unscaled)
Objective...............:  -1.0000000000000000e+00   -1.0000000000000000e+00
Dual infeasibility......:   5.5511151231257827e-16    5.5511151231257827e-16
Constraint violation....:   3.0313202772259376e-09    3.0313202772259376e-09
Complementarity.........:   0.0000000000000000e+00    0.0000000000000000e+00
Overall NLP error.......:   3.0313202772259376e-09    3.0313202772259376e-09


Number of objective function evaluations             = 9
Number of objective gradient evaluations             = 9
Number of equality constraint evaluations            = 9
Number of inequality constraint evaluations          = 0
Number of equality constraint Jacobian evaluations   = 9
Number of inequality constraint Jacobian evaluations = 0
Number of Lagrangian Hessian evaluations             = 8
Total CPU secs in IPOPT (w/o function evaluations)   =      0.007
Total CPU secs in NLP function evaluations           =      0.003

EXIT: Optimal Solution Found.
Note: The following floating-point exceptions are signalling: IEEE_UNDERFLOW_FLAG IEEE_DENORMAL

************************ CUTEst statistics ************************


 Package used            :  IPOPT
 Problem                 :  EIGMAXC   
 # variables             =             202
 # constraints           =             202
 # objective functions   =        0.1900000E+02
 # objective gradients   =        0.1000000E+02
 # objective Hessians    =        0.9000000E+01
 # Hessian-vector prdct  =        0.0000000E+00
 # constraints functions =        0.2000000E+02
 # constraints gradients =        0.1100000E+02
 # constraints Hessians  =        0.9000000E+01
 Exit code               =               0
 Final f                 =  -0.1000000E+01
 Set up time             =            0.00 seconds
 Solve time              =            0.03 seconds


******************************************************************

System Time =       0.0060000001 s.
